69 7 13 12 67 5 53 18 72 114 107 93 47 84 20 9 110 112 90 58 86 24 108 4 102 56 36 61 85 31 17 22 29 42 21 83 62 60 30 11 54 75 23 59 32 45 15 91 41 49 81 71 92 77 104 97 43 10 48 89 98 101 37 70 14 79 57 105 65 40 6 111 55 50 3 74 106 63 51 103 8 33 0 82 27 87 44 26 66 73 46 76 2 113 99 68 35 80 94 28 39 78 64 52 16 109 1 25 34 88 95 96 19 38 100 